\ LP format - for model browsing. Use MPS format to capture full model detail.
\ Signature: 0xc1f75b74bd85b92d
Minimize
  62.42410181999158 C0 + 93.12838595159374 C1 + 15.16278545475965 C2
   - 56.06959023310069 C3 + 12.09748502392621 C4 + [
   44.77013424743267 C0 ^2 + 12.03151847379819 C0 * C1
   + 15.79629263296855 C0 * C2 + 12.86110010159516 C0 * C3
   - 17.37229605493491 C0 * C4 + 36.98643426597026 C1 ^2
   + 18.7566968819355 C1 * C2 - 2.733978408647426 C1 * C3
   + 21.54932825730906 C1 * C4 + 28.95427158177755 C2 ^2
   - 7.623943825202492 C2 * C3 + 24.48446248913049 C2 * C4
   + 60.45381248644993 C3 ^2 + 4.126297720589703 C3 * C4
   + 32.71607100579049 C4 ^2 ] / 2 
Subject To
 R0: C0 - 4 C5 <= 0
 R1: C1 - 4 C6 <= 0
 R2: C2 - 4 C7 <= 0
 R3: C3 - 4 C8 <= 0
 R4: C4 - 4 C9 <= 0
 R5: - C0 - 4 C5 <= 0
 R6: - C1 - 4 C6 <= 0
 R7: - C2 - 4 C7 <= 0
 R8: - C3 - 4 C8 <= 0
 R9: - C4 - 4 C9 <= 0
 R10: C5 + C6 + C7 + C8 + C9 <= 3
Bounds
 -4 <= C0 <= 4
 -4 <= C1 <= 4
 -4 <= C2 <= 4
 -4 <= C3 <= 4
 -4 <= C4 <= 4
Binaries
 C5 C6 C7 C8 C9
End
